study/exp-portion-fine-grain-4v100/run-logs-backup-12-06/samgraph_cache_graphsage_kKHop2_papers100M-undir_coll_cache_asymm_link_2_cache_rate_002_batch_size_8000_concurrent_impl_MPS.log
config:eval_tsp="2022-12-06 13:56:41"
config:arch=arch5
config:num_train_worker=3
config:num_sample_worker=1
config:sample_type=khop2
config:root_path=/nvme/graph-learning-copy/samgraph/
config:dataset=papers100M-undir
config:pipeline=False
config:cache_policy=coll_cache_asymm_link
config:cache_percentage=0.02
config:num_epoch=4
config:batch_size=8000
config:num_hidden=256
config:max_sampling_jobs=1
config:max_copying_jobs=1
config:barriered_epoch=1
config:presample_epoch=2
config:omp_thread_num=13
config:unsupervised=False
config:amp=True
config:rolling=0
config:fanout=[25, 10]
config:lr=0.003
config:dropout=0.5
config:single_gpu=False
config:max_num_step=100000
config:validate_configs=False
config:report_acc=0
config:dataset_path=/nvme/graph-learning-copy/samgraph/papers100M-undir
config:torch_thread_num=13
config:train_workers=['cuda:0', 'cuda:1', 'cuda:2']
config:sample_workers=['cuda:3']
config:num_fanout=2
config:num_layer=2
config:_run_mode=RunMode.FGNN
config:_log_level=warn
config:_profile_level=3
config:_empty_feat=0
config:_arch=5
config:_sample_type=5
config:_cache_policy=13
test_result:init:input_scale_factor=1.1
0 :  {link #0 : 1}, {link #1 : 2},
1 :  {link #0 : 2}, {link #1 : 0},
2 :  {link #0 : 0}, {link #1 : 1},
0 :  {link #0 : 1}, {link #1 : 2},
1 :  {link #0 : 2}, {link #1 : 0},
2 :  {link #0 : 0}, {link #1 : 1},
0 :  {link #0 : 1}, {link #1 : 2},
1 :  {link #0 : 2}, {link #1 : 0},
2 :  {link #0 : 0}, {link #1 : 1},
Set parameter WLSAccessID
Set parameter WLSSecret
Set parameter LicenseID
Set parameter TimeLimit to value 200
Set parameter MIPGap to value 0.05
Set parameter GomoryPasses to value 0
Set parameter Aggregate to value 0
Set parameter LogFile to value "cppsolver.log"
Set parameter Threads to value 26
Academic license - for non-commercial use only - registered to xiaoniu.sxn@sjtu.edu.cn
Gurobi Optimizer version 9.5.1 build v9.5.1rc2 (linux64)
Thread count: 40 physical cores, 80 logical processors, using up to 26 threads
Academic license - for non-commercial use only - registered to xiaoniu.sxn@sjtu.edu.cn
Optimize a model with 21372 rows, 10174 columns and 64086 nonzeros
Model fingerprint: 0xd46f195e
Variable types: 4 continuous, 10170 integer (10170 binary)
Coefficient statistics:
  Matrix range     [2e-04, 4e+02]
  Objective range  [1e+00, 1e+00]
  Bounds range     [1e+00, 1e+00]
  RHS range        [1e+00, 2e+02]
Found heuristic solution: objective 2.000000e+09
Presolve removed 12206 rows and 0 columns
Presolve time: 0.09s
Presolved: 9166 rows, 10174 columns, 37642 nonzeros
Found heuristic solution: objective 8540.8417954
Variable types: 4 continuous, 10170 integer (10170 binary)

Root relaxation: objective 1.256575e+03, 8340 iterations, 0.16 seconds (0.13 work units)

    Nodes    |    Current Node    |     Objective Bounds      |     Work
 Expl Unexpl |  Obj  Depth IntInf | Incumbent    BestBd   Gap | It/Node Time

     0     0 1256.57494    0   16 8540.84180 1256.57494  85.3%     -    0s
H    0     0                    1261.0211250 1256.57494  0.35%     -    1s

Explored 1 nodes (10383 simplex iterations) in 1.13 seconds (0.61 work units)
Thread count was 26 (of 80 available processors)

Solution count 3: 1261.02 8540.84 2e+09 

Optimal solution found (tolerance 5.00e-02)
Best objective 1.261021124980e+03, best bound 1.256574935212e+03, gap 0.3526%
coll_cache:optimal_local_rate=0.23136,0.233518,0.418678,
coll_cache:optimal_remote_rate=0.648818,0.64666,0.4615,
coll_cache:optimal_cpu_rate=0.119821,0.119821,0.119821,
z=1261.02
test_result:init:feat_nbytes=56862697472
test_result:init:cache_nbytes=1142838272
test_result:init:feat_nbytes=56862697472
test_result:init:cache_nbytes=1142744064
0 :  {link #0 : 1}, {link #1 : 2},
1 :  {link #0 : 2}, {link #1 : 0},
2 :  {link #0 : 0}, {link #1 : 1},
0 :  {link #0 : 1}, {link #1 : 2},
1 :  {link #0 : 2}, {link #1 : 0},
2 :  {link #0 : 0}, {link #1 : 1},
test_result:init:feat_nbytes=56862697472
test_result:init:cache_nbytes=1142355456
0 :  {link #0 : 1}, {link #1 : 2},
1 :  {link #0 : 2}, {link #1 : 0},
2 :  {link #0 : 0}, {link #1 : 1},
Set parameter WLSAccessID
Set parameter WLSSecret
Set parameter LicenseID
Set parameter TimeLimit to value 200
Set parameter MIPGap to value 0.05
Set parameter GomoryPasses to value 0
Set parameter Aggregate to value 0
Set parameter LogFile to value "cppsolver.log"
Set parameter Threads to value 26
Academic license - for non-commercial use only - registered to xiaoniu.sxn@sjtu.edu.cn
Gurobi Optimizer version 9.5.1 build v9.5.1rc2 (linux64)
Thread count: 40 physical cores, 80 logical processors, using up to 26 threads
Academic license - for non-commercial use only - registered to xiaoniu.sxn@sjtu.edu.cn
Optimize a model with 21372 rows, 10174 columns and 64086 nonzeros
Model fingerprint: 0x5adafa20
Variable types: 4 continuous, 10170 integer (10170 binary)
Coefficient statistics:
  Matrix range     [2e-04, 4e+02]
  Objective range  [1e+00, 1e+00]
  Bounds range     [1e+00, 1e+00]
  RHS range        [1e+00, 2e+02]
Found heuristic solution: objective 2.000000e+09
Presolve removed 12206 rows and 0 columns
Presolve time: 0.08s
Presolved: 9166 rows, 10174 columns, 37642 nonzeros
Found heuristic solution: objective 8358.4266232
Variable types: 4 continuous, 10170 integer (10170 binary)

Root relaxation: objective 1.256575e+03, 7074 iterations, 0.17 seconds (0.15 work units)

    Nodes    |    Current Node    |     Objective Bounds      |     Work
 Expl Unexpl |  Obj  Depth IntInf | Incumbent    BestBd   Gap | It/Node Time

     0     0 1256.57494    0   13 8358.42662 1256.57494  85.0%     -    0s
H    0     0                    1261.0211250 1256.57494  0.35%     -    1s

Explored 1 nodes (8866 simplex iterations) in 1.08 seconds (0.61 work units)
Thread count was 26 (of 80 available processors)

Solution count 3: 1261.02 8358.43 2e+09 

Optimal solution found (tolerance 5.00e-02)
Best objective 1.261021124980e+03, best bound 1.256574935212e+03, gap 0.3526%
coll_cache:optimal_local_rate=0.283475,0.313054,0.28365,
coll_cache:optimal_remote_rate=0.596704,0.567125,0.596529,
coll_cache:optimal_cpu_rate=0.119821,0.119821,0.119821,
z=1261.02
test_result:init:cache_nbytes=0
test_result:init:cache_nbytes=0
test_result:init:cache_nbytes=0
[Train  Worker 2/3] Started with PID 987650(Tesla V100-SXM2-16GB)
[Train  Worker 2] run train for 4 epochs with 153 steps
[Train  Worker 2] Avg Epoch Time 0.9166 | Train Total Time(Profiler) 0.4132 | Copy Time 0.4987
[Train  Worker 0/3] Started with PID 987647(Tesla V100-SXM2-16GB)
[Train  Worker 0] run train for 4 epochs with 153 steps
Epoch 00000 | Epoch Time 2.0380 | Total Train Time(Profiler) 1.5231 | Copy Time 0.5093
Epoch 00001 | Epoch Time 0.9187 | Total Train Time(Profiler) 0.4291 | Copy Time 0.4853
Epoch 00002 | Epoch Time 0.9151 | Total Train Time(Profiler) 0.4259 | Copy Time 0.4844
Epoch 00003 | Epoch Time 0.9165 | Total Train Time(Profiler) 0.4291 | Copy Time 0.4830
[Train  Worker 0] Avg Epoch Time 0.9168 | Train Total Time(Profiler) 0.4280 | Copy Time 0.4842
[Train  Worker 1/3] Started with PID 987649(Tesla V100-SXM2-16GB)
[Train  Worker 1] run train for 4 epochs with 153 steps
[Train  Worker 1] Avg Epoch Time 0.9167 | Train Total Time(Profiler) 0.4242 | Copy Time 0.4876
    [Step(average) Profiler Level 1 E3 S152]
        L1  sample           0.005663 | send           0.001404
        L1  recv             0.000000 | copy           0.000000 | convert time 0.000000 | train  0.000000
        L1  feature nbytes 0.00 Bytes | label nbytes 0.00 Bytes
        L1  id nbytes      0.00 Bytes | graph nbytes 0.00 Bytes
        L1  miss nbytes    0.00 Bytes | remote nbytes 0.00 Bytes
        L1  num nodes         1100965 | num samples     1712941
    [Step(average) Profiler Level 2 E3 S152]
        L2  shuffle     0.000275 | core sample  0.002082 | id remap        0.003194
        L2  graph copy  0.000000 | id copy      0.000000 | cache feat copy 0.000000
        L2  last layer sample time 0.000339 | size 72444.642702
    [Step(average) Profiler Level 3 E3 S152]
        L3  khop sample coo  0.001746 | khop sort coo      0.000000 | khop count edge     0.000041 | khop compact edge 0.000251
        L3  walk sample coo  0.000000 | walk topk total    0.000000 | walk topk step1     0.000000 | walk topk step2   0.000000
        L3  walk topk step3  0.000000 | walk topk step4    0.000000 | walk topk step5     0.000000
        L3  walk topk step6  0.000000 | walk topk step7    0.000000
        L3  remap unique     0.000000 | remap populate     0.002658 | remap mapnode       0.000000 | remap mapedge     0.000536
        L3  cache get_index  0.000000 | cache copy_index   0.000000 | cache extract_miss  0.000000
        L3  cache copy_miss  0.000000 | cache combine_miss 0.000000 | cache combine cache 0.000000 | cache combine remote 0.000000
        L3  label extract  0.000000
    [Init Profiler Level 1]
        L1  init     5.1027 | sampler init    19.7915 | trainer init 0.0000
    [Init Profiler Level 2]
        L2  load ds         7.9878 | init queue          11.4606
        L2  presample       3.6776 | build interal ds     1.7656
        L2  build cache     0.0000
    [Init Profiler Level 3]
        L3  load dataset: mmap     5.0988 | copy         2.8889
        L3  dist queue: alloc      0.0017 | pin         11.4588 | push     0.0000
        L3  presample: init        0.2993
        L3  presample: sample      1.7027 | copy         0.1069
        L3  presample: count       0.9104 | sort         0.2891
        L3  presample: reset       0.0009 | get rank     0.0344
        L3  internal: cuda ctx     1.5125 | cuda stream     0.2488
[Sample Worker 0/1] Started with PID 987646(Tesla V100-SXM2-16GB)
[Sample Worker 0] run sample for 4 epochs with 153 steps
[Sample Worker 0] Avg Sample Total Time 1.0831 | Sampler Total Time(Profiler) 1.0814
test_result:sample_time=0.8665
test_result:get_cache_miss_index_time=0.0000
test_result:enqueue_samples_time=0.2149
test_result:epoch_time:sample_total=1.0831
[CUDA] cuda0: usage: 7.08 GB
[SAM] cuda0 data alloc        : 0.00 Bytes
[SAM] cuda0 workspace         : 1.23 GB
[SAM] cuda0 workspace reserve : 622.49 MB
[SAM] cuda0 total             : 1.23 GB
    [Step(average) Profiler Level 1 E3 S152]
        L1  sample           0.000000 | send           0.000000
        L1  recv             0.001566 | copy           0.009612 | convert time 0.000384 | train  0.007887
        L1  feature nbytes  537.58 MB | label nbytes   62.50 KB
        L1  id nbytes      0.00 Bytes | graph nbytes 0.00 Bytes
        L1  miss nbytes      67.87 MB | remote nbytes  312.47 MB
        L1  num nodes               0 | num samples           0
    [Step(average) Profiler Level 2 E3 S152]
        L2  shuffle     0.000000 | core sample  0.000000 | id remap        0.000000
        L2  graph copy  0.000003 | id copy      0.000000 | cache feat copy 0.008043
        L2  last layer sample time 0.000000 | size 0.000000
    [Step(average) Profiler Level 3 E3 S152]
        L3  khop sample coo  0.000000 | khop sort coo      0.000000 | khop count edge     0.000000 | khop compact edge 0.000000
        L3  walk sample coo  0.000000 | walk topk total    0.000000 | walk topk step1     0.000000 | walk topk step2   0.000000
        L3  walk topk step3  0.000000 | walk topk step4    0.000000 | walk topk step5     0.000000
        L3  walk topk step6  0.000000 | walk topk step7    0.000000
        L3  remap unique     0.000000 | remap populate     0.000000 | remap mapnode       0.000000 | remap mapedge     0.000000
        L3  cache get_index  0.000705 | cache copy_index   0.000000 | cache extract_miss  0.000000
        L3  cache copy_miss  0.000000 | cache combine_miss 0.007154 | cache combine cache 0.000520 | cache combine remote 0.004664
        L3  label extract  0.000173
    [Init Profiler Level 1]
        L1  init     5.1027 | sampler init     0.0000 | trainer init 70.8232
    [Init Profiler Level 2]
        L2  load ds         5.0988 | init queue          11.4480
        L2  presample       0.0000 | build interal ds     1.4561
        L2  build cache    57.9152
    [Init Profiler Level 3]
        L3  load dataset: mmap     5.0988 | copy         0.0000
        L3  dist queue: alloc      0.0017 | pin         11.4462 | push     0.0000
        L3  presample: init        0.0000
        L3  presample: sample      0.0000 | copy         0.0000
        L3  presample: count       0.0000 | sort         0.0000
        L3  presample: reset       0.0000 | get rank     0.0000
        L3  internal: cuda ctx     1.4560 | cuda stream     0.0000
|===========================================================================|
|                  PyTorch CUDA memory summary, device ID 0                 |
|---------------------------------------------------------------------------|
|            CUDA OOMs: 0            |        cudaMalloc retries: 0         |
|===========================================================================|
|        Metric         | Cur Usage  | Peak Usage | Tot Alloc  | Tot Freed  |
|---------------------------------------------------------------------------|
| Allocated memory      |   22908 KB |  402887 KB |  284851 MB |  284829 MB |
|       from large pool |   18233 KB |  399504 KB |  282738 MB |  282720 MB |
|       from small pool |    4675 KB |    7149 KB |    2112 MB |    2108 MB |
|---------------------------------------------------------------------------|
| Active memory         |   22908 KB |  402887 KB |  284851 MB |  284829 MB |
|       from large pool |   18233 KB |  399504 KB |  282738 MB |  282720 MB |
|       from small pool |    4675 KB |    7149 KB |    2112 MB |    2108 MB |
|---------------------------------------------------------------------------|
| GPU reserved memory   |  581632 KB |  581632 KB |  581632 KB |       0 B  |
|       from large pool |  571392 KB |  571392 KB |  571392 KB |       0 B  |
|       from small pool |   10240 KB |   10240 KB |   10240 KB |       0 B  |
|---------------------------------------------------------------------------|
| Non-releasable memory |   24195 KB |  370944 KB |  332670 MB |  332647 MB |
|       from large pool |   22727 KB |  369121 KB |  330253 MB |  330231 MB |
|       from small pool |    1468 KB |    3606 KB |    2417 MB |    2415 MB |
|---------------------------------------------------------------------------|
| Allocations           |      38    |      51    |   22680    |   22642    |
|       from large pool |       3    |      14    |    8976    |    8973    |
|       from small pool |      35    |      39    |   13704    |   13669    |
|---------------------------------------------------------------------------|
| Active allocs         |      39    |      51    |   22680    |   22641    |
|       from large pool |       3    |      14    |    8976    |    8973    |
|       from small pool |      36    |      39    |   13704    |   13668    |
|---------------------------------------------------------------------------|
| GPU reserved segments |      14    |      14    |      14    |       0    |
|       from large pool |       9    |       9    |       9    |       0    |
|       from small pool |       5    |       5    |       5    |       0    |
|---------------------------------------------------------------------------|
| Non-releasable allocs |      13    |      24    |   10676    |   10663    |
|       from large pool |       4    |      12    |    5206    |    5202    |
|       from small pool |       9    |      15    |    5470    |    5461    |
|---------------------------------------------------------------------------|
| Oversize allocations  |       0    |       0    |       0    |       0    |
|---------------------------------------------------------------------------|
| Oversize GPU segments |       0    |       0    |       0    |       0    |
|===========================================================================|

test_result:epoch_time:copy_time=0.4842
test_result:convert_time=0.0193
test_result:train_time=0.4088
test_result:epoch_time:train_total=0.4280
test_result:cache_percentage=0.0200
test_result:cache_hit_rate=1.0000
test_result:run_time=9.1491
